p edge 120 1680
p 1 2
p 1 3
p 1 4
p 1 5
p 1 7
p 1 8
p 1 11
p 1 12
p 1 16
p 1 17
p 1 22
p 1 23
p 1 29
p 1 30
p 1 37
p 1 38
p 1 46
p 1 47
p 1 56
p 1 57
p 1 67
p 1 68
p 1 79
p 1 80
p 1 92
p 1 93
p 1 106
p 1 107
p 2 3
p 2 4
p 2 6
p 2 7
p 2 9
p 2 11
p 2 13
p 2 16
p 2 18
p 2 22
p 2 24
p 2 29
p 2 31
p 2 37
p 2 39
p 2 46
p 2 48
p 2 56
p 2 58
p 2 67
p 2 69
p 2 79
p 2 81
p 2 92
p 2 94
p 2 106
p 2 108
p 3 5
p 3 6
p 3 8
p 3 9
p 3 12
p 3 13
p 3 17
p 3 18
p 3 23
p 3 24
p 3 30
p 3 31
p 3 38
p 3 39
p 3 47
p 3 48
p 3 57
p 3 58
p 3 68
p 3 69
p 3 80
p 3 81
p 3 93
p 3 94
p 3 107
p 3 108
p 4 5
p 4 6
p 4 7
p 4 10
p 4 11
p 4 14
p 4 16
p 4 19
p 4 22
p 4 25
p 4 29
p 4 32
p 4 37
p 4 40
p 4 46
p 4 49
p 4 56
p 4 59
p 4 67
p 4 70
p 4 79
p 4 82
p 4 92
p 4 95
p 4 106
p 4 109
p 5 6
p 5 8
p 5 10
p 5 12
p 5 14
p 5 17
p 5 19
p 5 23
p 5 25
p 5 30
p 5 32
p 5 38
p 5 40
p 5 47
p 5 49
p 5 57
p 5 59
p 5 68
p 5 70
p 5 80
p 5 82
p 5 93
p 5 95
p 5 107
p 5 109
p 6 9
p 6 10
p 6 13
p 6 14
p 6 18
p 6 19
p 6 24
p 6 25
p 6 31
p 6 32
p 6 39
p 6 40
p 6 48
p 6 49
p 6 58
p 6 59
p 6 69
p 6 70
p 6 81
p 6 82
p 6 94
p 6 95
p 6 108
p 6 109
p 7 8
p 7 9
p 7 10
p 7 11
p 7 15
p 7 16
p 7 20
p 7 22
p 7 26
p 7 29
p 7 33
p 7 37
p 7 41
p 7 46
p 7 50
p 7 56
p 7 60
p 7 67
p 7 71
p 7 79
p 7 83
p 7 92
p 7 96
p 7 106
p 7 110
p 8 9
p 8 10
p 8 12
p 8 15
p 8 17
p 8 20
p 8 23
p 8 26
p 8 30
p 8 33
p 8 38
p 8 41
p 8 47
p 8 50
p 8 57
p 8 60
p 8 68
p 8 71
p 8 80
p 8 83
p 8 93
p 8 96
p 8 107
p 8 110
p 9 10
p 9 13
p 9 15
p 9 18
p 9 20
p 9 24
p 9 26
p 9 31
p 9 33
p 9 39
p 9 41
p 9 48
p 9 50
p 9 58
p 9 60
p 9 69
p 9 71
p 9 81
p 9 83
p 9 94
p 9 96
p 9 108
p 9 110
p 10 14
p 10 15
p 10 19
p 10 20
p 10 25
p 10 26
p 10 32
p 10 33
p 10 40
p 10 41
p 10 49
p 10 50
p 10 59
p 10 60
p 10 70
p 10 71
p 10 82
p 10 83
p 10 95
p 10 96
p 10 109
p 10 110
p 11 12
p 11 13
p 11 14
p 11 15
p 11 16
p 11 21
p 11 22
p 11 27
p 11 29
p 11 34
p 11 37
p 11 42
p 11 46
p 11 51
p 11 56
p 11 61
p 11 67
p 11 72
p 11 79
p 11 84
p 11 92
p 11 97
p 11 106
p 11 111
p 12 13
p 12 14
p 12 15
p 12 17
p 12 21
p 12 23
p 12 27
p 12 30
p 12 34
p 12 38
p 12 42
p 12 47
p 12 51
p 12 57
p 12 61
p 12 68
p 12 72
p 12 80
p 12 84
p 12 93
p 12 97
p 12 107
p 12 111
p 13 14
p 13 15
p 13 18
p 13 21
p 13 24
p 13 27
p 13 31
p 13 34
p 13 39
p 13 42
p 13 48
p 13 51
p 13 58
p 13 61
p 13 69
p 13 72
p 13 81
p 13 84
p 13 94
p 13 97
p 13 108
p 13 111
p 14 15
p 14 19
p 14 21
p 14 25
p 14 27
p 14 32
p 14 34
p 14 40
p 14 42
p 14 49
p 14 51
p 14 59
p 14 61
p 14 70
p 14 72
p 14 82
p 14 84
p 14 95
p 14 97
p 14 109
p 14 111
p 15 20
p 15 21
p 15 26
p 15 27
p 15 33
p 15 34
p 15 41
p 15 42
p 15 50
p 15 51
p 15 60
p 15 61
p 15 71
p 15 72
p 15 83
p 15 84
p 15 96
p 15 97
p 15 110
p 15 111
p 16 17
p 16 18
p 16 19
p 16 20
p 16 21
p 16 22
p 16 28
p 16 29
p 16 35
p 16 37
p 16 43
p 16 46
p 16 52
p 16 56
p 16 62
p 16 67
p 16 73
p 16 79
p 16 85
p 16 92
p 16 98
p 16 106
p 16 112
p 17 18
p 17 19
p 17 20
p 17 21
p 17 23
p 17 28
p 17 30
p 17 35
p 17 38
p 17 43
p 17 47
p 17 52
p 17 57
p 17 62
p 17 68
p 17 73
p 17 80
p 17 85
p 17 93
p 17 98
p 17 107
p 17 112
p 18 19
p 18 20
p 18 21
p 18 24
p 18 28
p 18 31
p 18 35
p 18 39
p 18 43
p 18 48
p 18 52
p 18 58
p 18 62
p 18 69
p 18 73
p 18 81
p 18 85
p 18 94
p 18 98
p 18 108
p 18 112
p 19 20
p 19 21
p 19 25
p 19 28
p 19 32
p 19 35
p 19 40
p 19 43
p 19 49
p 19 52
p 19 59
p 19 62
p 19 70
p 19 73
p 19 82
p 19 85
p 19 95
p 19 98
p 19 109
p 19 112
p 20 21
p 20 26
p 20 28
p 20 33
p 20 35
p 20 41
p 20 43
p 20 50
p 20 52
p 20 60
p 20 62
p 20 71
p 20 73
p 20 83
p 20 85
p 20 96
p 20 98
p 20 110
p 20 112
p 21 27
p 21 28
p 21 34
p 21 35
p 21 42
p 21 43
p 21 51
p 21 52
p 21 61
p 21 62
p 21 72
p 21 73
p 21 84
p 21 85
p 21 97
p 21 98
p 21 111
p 21 112
p 22 23
p 22 24
p 22 25
p 22 26
p 22 27
p 22 28
p 22 29
p 22 36
p 22 37
p 22 44
p 22 46
p 22 53
p 22 56
p 22 63
p 22 67
p 22 74
p 22 79
p 22 86
p 22 92
p 22 99
p 22 106
p 22 113
p 23 24
p 23 25
p 23 26
p 23 27
p 23 28
p 23 30
p 23 36
p 23 38
p 23 44
p 23 47
p 23 53
p 23 57
p 23 63
p 23 68
p 23 74
p 23 80
p 23 86
p 23 93
p 23 99
p 23 107
p 23 113
p 24 25
p 24 26
p 24 27
p 24 28
p 24 31
p 24 36
p 24 39
p 24 44
p 24 48
p 24 53
p 24 58
p 24 63
p 24 69
p 24 74
p 24 81
p 24 86
p 24 94
p 24 99
p 24 108
p 24 113
p 25 26
p 25 27
p 25 28
p 25 32
p 25 36
p 25 40
p 25 44
p 25 49
p 25 53
p 25 59
p 25 63
p 25 70
p 25 74
p 25 82
p 25 86
p 25 95
p 25 99
p 25 109
p 25 113
p 26 27
p 26 28
p 26 33
p 26 36
p 26 41
p 26 44
p 26 50
p 26 53
p 26 60
p 26 63
p 26 71
p 26 74
p 26 83
p 26 86
p 26 96
p 26 99
p 26 110
p 26 113
p 27 28
p 27 34
p 27 36
p 27 42
p 27 44
p 27 51
p 27 53
p 27 61
p 27 63
p 27 72
p 27 74
p 27 84
p 27 86
p 27 97
p 27 99
p 27 111
p 27 113
p 28 35
p 28 36
p 28 43
p 28 44
p 28 52
p 28 53
p 28 62
p 28 63
p 28 73
p 28 74
p 28 85
p 28 86
p 28 98
p 28 99
p 28 112
p 28 113
p 29 30
p 29 31
p 29 32
p 29 33
p 29 34
p 29 35
p 29 36
p 29 37
p 29 45
p 29 46
p 29 54
p 29 56
p 29 64
p 29 67
p 29 75
p 29 79
p 29 87
p 29 92
p 29 100
p 29 106
p 29 114
p 30 31
p 30 32
p 30 33
p 30 34
p 30 35
p 30 36
p 30 38
p 30 45
p 30 47
p 30 54
p 30 57
p 30 64
p 30 68
p 30 75
p 30 80
p 30 87
p 30 93
p 30 100
p 30 107
p 30 114
p 31 32
p 31 33
p 31 34
p 31 35
p 31 36
p 31 39
p 31 45
p 31 48
p 31 54
p 31 58
p 31 64
p 31 69
p 31 75
p 31 81
p 31 87
p 31 94
p 31 100
p 31 108
p 31 114
p 32 33
p 32 34
p 32 35
p 32 36
p 32 40
p 32 45
p 32 49
p 32 54
p 32 59
p 32 64
p 32 70
p 32 75
p 32 82
p 32 87
p 32 95
p 32 100
p 32 109
p 32 114
p 33 34
p 33 35
p 33 36
p 33 41
p 33 45
p 33 50
p 33 54
p 33 60
p 33 64
p 33 71
p 33 75
p 33 83
p 33 87
p 33 96
p 33 100
p 33 110
p 33 114
p 34 35
p 34 36
p 34 42
p 34 45
p 34 51
p 34 54
p 34 61
p 34 64
p 34 72
p 34 75
p 34 84
p 34 87
p 34 97
p 34 100
p 34 111
p 34 114
p 35 36
p 35 43
p 35 45
p 35 52
p 35 54
p 35 62
p 35 64
p 35 73
p 35 75
p 35 85
p 35 87
p 35 98
p 35 100
p 35 112
p 35 114
p 36 44
p 36 45
p 36 53
p 36 54
p 36 63
p 36 64
p 36 74
p 36 75
p 36 86
p 36 87
p 36 99
p 36 100
p 36 113
p 36 114
p 37 38
p 37 39
p 37 40
p 37 41
p 37 42
p 37 43
p 37 44
p 37 45
p 37 46
p 37 55
p 37 56
p 37 65
p 37 67
p 37 76
p 37 79
p 37 88
p 37 92
p 37 101
p 37 106
p 37 115
p 38 39
p 38 40
p 38 41
p 38 42
p 38 43
p 38 44
p 38 45
p 38 47
p 38 55
p 38 57
p 38 65
p 38 68
p 38 76
p 38 80
p 38 88
p 38 93
p 38 101
p 38 107
p 38 115
p 39 40
p 39 41
p 39 42
p 39 43
p 39 44
p 39 45
p 39 48
p 39 55
p 39 58
p 39 65
p 39 69
p 39 76
p 39 81
p 39 88
p 39 94
p 39 101
p 39 108
p 39 115
p 40 41
p 40 42
p 40 43
p 40 44
p 40 45
p 40 49
p 40 55
p 40 59
p 40 65
p 40 70
p 40 76
p 40 82
p 40 88
p 40 95
p 40 101
p 40 109
p 40 115
p 41 42
p 41 43
p 41 44
p 41 45
p 41 50
p 41 55
p 41 60
p 41 65
p 41 71
p 41 76
p 41 83
p 41 88
p 41 96
p 41 101
p 41 110
p 41 115
p 42 43
p 42 44
p 42 45
p 42 51
p 42 55
p 42 61
p 42 65
p 42 72
p 42 76
p 42 84
p 42 88
p 42 97
p 42 101
p 42 111
p 42 115
p 43 44
p 43 45
p 43 52
p 43 55
p 43 62
p 43 65
p 43 73
p 43 76
p 43 85
p 43 88
p 43 98
p 43 101
p 43 112
p 43 115
p 44 45
p 44 53
p 44 55
p 44 63
p 44 65
p 44 74
p 44 76
p 44 86
p 44 88
p 44 99
p 44 101
p 44 113
p 44 115
p 45 54
p 45 55
p 45 64
p 45 65
p 45 75
p 45 76
p 45 87
p 45 88
p 45 100
p 45 101
p 45 114
p 45 115
p 46 47
p 46 48
p 46 49
p 46 50
p 46 51
p 46 52
p 46 53
p 46 54
p 46 55
p 46 56
p 46 66
p 46 67
p 46 77
p 46 79
p 46 89
p 46 92
p 46 102
p 46 106
p 46 116
p 47 48
p 47 49
p 47 50
p 47 51
p 47 52
p 47 53
p 47 54
p 47 55
p 47 57
p 47 66
p 47 68
p 47 77
p 47 80
p 47 89
p 47 93
p 47 102
p 47 107
p 47 116
p 48 49
p 48 50
p 48 51
p 48 52
p 48 53
p 48 54
p 48 55
p 48 58
p 48 66
p 48 69
p 48 77
p 48 81
p 48 89
p 48 94
p 48 102
p 48 108
p 48 116
p 49 50
p 49 51
p 49 52
p 49 53
p 49 54
p 49 55
p 49 59
p 49 66
p 49 70
p 49 77
p 49 82
p 49 89
p 49 95
p 49 102
p 49 109
p 49 116
p 50 51
p 50 52
p 50 53
p 50 54
p 50 55
p 50 60
p 50 66
p 50 71
p 50 77
p 50 83
p 50 89
p 50 96
p 50 102
p 50 110
p 50 116
p 51 52
p 51 53
p 51 54
p 51 55
p 51 61
p 51 66
p 51 72
p 51 77
p 51 84
p 51 89
p 51 97
p 51 102
p 51 111
p 51 116
p 52 53
p 52 54
p 52 55
p 52 62
p 52 66
p 52 73
p 52 77
p 52 85
p 52 89
p 52 98
p 52 102
p 52 112
p 52 116
p 53 54
p 53 55
p 53 63
p 53 66
p 53 74
p 53 77
p 53 86
p 53 89
p 53 99
p 53 102
p 53 113
p 53 116
p 54 55
p 54 64
p 54 66
p 54 75
p 54 77
p 54 87
p 54 89
p 54 100
p 54 102
p 54 114
p 54 116
p 55 65
p 55 66
p 55 76
p 55 77
p 55 88
p 55 89
p 55 101
p 55 102
p 55 115
p 55 116
p 56 57
p 56 58
p 56 59
p 56 60
p 56 61
p 56 62
p 56 63
p 56 64
p 56 65
p 56 66
p 56 67
p 56 78
p 56 79
p 56 90
p 56 92
p 56 103
p 56 106
p 56 117
p 57 58
p 57 59
p 57 60
p 57 61
p 57 62
p 57 63
p 57 64
p 57 65
p 57 66
p 57 68
p 57 78
p 57 80
p 57 90
p 57 93
p 57 103
p 57 107
p 57 117
p 58 59
p 58 60
p 58 61
p 58 62
p 58 63
p 58 64
p 58 65
p 58 66
p 58 69
p 58 78
p 58 81
p 58 90
p 58 94
p 58 103
p 58 108
p 58 117
p 59 60
p 59 61
p 59 62
p 59 63
p 59 64
p 59 65
p 59 66
p 59 70
p 59 78
p 59 82
p 59 90
p 59 95
p 59 103
p 59 109
p 59 117
p 60 61
p 60 62
p 60 63
p 60 64
p 60 65
p 60 66
p 60 71
p 60 78
p 60 83
p 60 90
p 60 96
p 60 103
p 60 110
p 60 117
p 61 62
p 61 63
p 61 64
p 61 65
p 61 66
p 61 72
p 61 78
p 61 84
p 61 90
p 61 97
p 61 103
p 61 111
p 61 117
p 62 63
p 62 64
p 62 65
p 62 66
p 62 73
p 62 78
p 62 85
p 62 90
p 62 98
p 62 103
p 62 112
p 62 117
p 63 64
p 63 65
p 63 66
p 63 74
p 63 78
p 63 86
p 63 90
p 63 99
p 63 103
p 63 113
p 63 117
p 64 65
p 64 66
p 64 75
p 64 78
p 64 87
p 64 90
p 64 100
p 64 103
p 64 114
p 64 117
p 65 66
p 65 76
p 65 78
p 65 88
p 65 90
p 65 101
p 65 103
p 65 115
p 65 117
p 66 77
p 66 78
p 66 89
p 66 90
p 66 102
p 66 103
p 66 116
p 66 117
p 67 68
p 67 69
p 67 70
p 67 71
p 67 72
p 67 73
p 67 74
p 67 75
p 67 76
p 67 77
p 67 78
p 67 79
p 67 91
p 67 92
p 67 104
p 67 106
p 67 118
p 68 69
p 68 70
p 68 71
p 68 72
p 68 73
p 68 74
p 68 75
p 68 76
p 68 77
p 68 78
p 68 80
p 68 91
p 68 93
p 68 104
p 68 107
p 68 118
p 69 70
p 69 71
p 69 72
p 69 73
p 69 74
p 69 75
p 69 76
p 69 77
p 69 78
p 69 81
p 69 91
p 69 94
p 69 104
p 69 108
p 69 118
p 70 71
p 70 72
p 70 73
p 70 74
p 70 75
p 70 76
p 70 77
p 70 78
p 70 82
p 70 91
p 70 95
p 70 104
p 70 109
p 70 118
p 71 72
p 71 73
p 71 74
p 71 75
p 71 76
p 71 77
p 71 78
p 71 83
p 71 91
p 71 96
p 71 104
p 71 110
p 71 118
p 72 73
p 72 74
p 72 75
p 72 76
p 72 77
p 72 78
p 72 84
p 72 91
p 72 97
p 72 104
p 72 111
p 72 118
p 73 74
p 73 75
p 73 76
p 73 77
p 73 78
p 73 85
p 73 91
p 73 98
p 73 104
p 73 112
p 73 118
p 74 75
p 74 76
p 74 77
p 74 78
p 74 86
p 74 91
p 74 99
p 74 104
p 74 113
p 74 118
p 75 76
p 75 77
p 75 78
p 75 87
p 75 91
p 75 100
p 75 104
p 75 114
p 75 118
p 76 77
p 76 78
p 76 88
p 76 91
p 76 101
p 76 104
p 76 115
p 76 118
p 77 78
p 77 89
p 77 91
p 77 102
p 77 104
p 77 116
p 77 118
p 78 90
p 78 91
p 78 103
p 78 104
p 78 117
p 78 118
p 79 80
p 79 81
p 79 82
p 79 83
p 79 84
p 79 85
p 79 86
p 79 87
p 79 88
p 79 89
p 79 90
p 79 91
p 79 92
p 79 105
p 79 106
p 79 119
p 80 81
p 80 82
p 80 83
p 80 84
p 80 85
p 80 86
p 80 87
p 80 88
p 80 89
p 80 90
p 80 91
p 80 93
p 80 105
p 80 107
p 80 119
p 81 82
p 81 83
p 81 84
p 81 85
p 81 86
p 81 87
p 81 88
p 81 89
p 81 90
p 81 91
p 81 94
p 81 105
p 81 108
p 81 119
p 82 83
p 82 84
p 82 85
p 82 86
p 82 87
p 82 88
p 82 89
p 82 90
p 82 91
p 82 95
p 82 105
p 82 109
p 82 119
p 83 84
p 83 85
p 83 86
p 83 87
p 83 88
p 83 89
p 83 90
p 83 91
p 83 96
p 83 105
p 83 110
p 83 119
p 84 85
p 84 86
p 84 87
p 84 88
p 84 89
p 84 90
p 84 91
p 84 97
p 84 105
p 84 111
p 84 119
p 85 86
p 85 87
p 85 88
p 85 89
p 85 90
p 85 91
p 85 98
p 85 105
p 85 112
p 85 119
p 86 87
p 86 88
p 86 89
p 86 90
p 86 91
p 86 99
p 86 105
p 86 113
p 86 119
p 87 88
p 87 89
p 87 90
p 87 91
p 87 100
p 87 105
p 87 114
p 87 119
p 88 89
p 88 90
p 88 91
p 88 101
p 88 105
p 88 115
p 88 119
p 89 90
p 89 91
p 89 102
p 89 105
p 89 116
p 89 119
p 90 91
p 90 103
p 90 105
p 90 117
p 90 119
p 91 104
p 91 105
p 91 118
p 91 119
p 92 93
p 92 94
p 92 95
p 92 96
p 92 97
p 92 98
p 92 99
p 92 100
p 92 101
p 92 102
p 92 103
p 92 104
p 92 105
p 92 106
p 92 120
p 93 94
p 93 95
p 93 96
p 93 97
p 93 98
p 93 99
p 93 100
p 93 101
p 93 102
p 93 103
p 93 104
p 93 105
p 93 107
p 93 120
p 94 95
p 94 96
p 94 97
p 94 98
p 94 99
p 94 100
p 94 101
p 94 102
p 94 103
p 94 104
p 94 105
p 94 108
p 94 120
p 95 96
p 95 97
p 95 98
p 95 99
p 95 100
p 95 101
p 95 102
p 95 103
p 95 104
p 95 105
p 95 109
p 95 120
p 96 97
p 96 98
p 96 99
p 96 100
p 96 101
p 96 102
p 96 103
p 96 104
p 96 105
p 96 110
p 96 120
p 97 98
p 97 99
p 97 100
p 97 101
p 97 102
p 97 103
p 97 104
p 97 105
p 97 111
p 97 120
p 98 99
p 98 100
p 98 101
p 98 102
p 98 103
p 98 104
p 98 105
p 98 112
p 98 120
p 99 100
p 99 101
p 99 102
p 99 103
p 99 104
p 99 105
p 99 113
p 99 120
p 100 101
p 100 102
p 100 103
p 100 104
p 100 105
p 100 114
p 100 120
p 101 102
p 101 103
p 101 104
p 101 105
p 101 115
p 101 120
p 102 103
p 102 104
p 102 105
p 102 116
p 102 120
p 103 104
p 103 105
p 103 117
p 103 120
p 104 105
p 104 118
p 104 120
p 105 119
p 105 120
p 106 107
p 106 108
p 106 109
p 106 110
p 106 111
p 106 112
p 106 113
p 106 114
p 106 115
p 106 116
p 106 117
p 106 118
p 106 119
p 106 120
p 107 108
p 107 109
p 107 110
p 107 111
p 107 112
p 107 113
p 107 114
p 107 115
p 107 116
p 107 117
p 107 118
p 107 119
p 107 120
p 108 109
p 108 110
p 108 111
p 108 112
p 108 113
p 108 114
p 108 115
p 108 116
p 108 117
p 108 118
p 108 119
p 108 120
p 109 110
p 109 111
p 109 112
p 109 113
p 109 114
p 109 115
p 109 116
p 109 117
p 109 118
p 109 119
p 109 120
p 110 111
p 110 112
p 110 113
p 110 114
p 110 115
p 110 116
p 110 117
p 110 118
p 110 119
p 110 120
p 111 112
p 111 113
p 111 114
p 111 115
p 111 116
p 111 117
p 111 118
p 111 119
p 111 120
p 112 113
p 112 114
p 112 115
p 112 116
p 112 117
p 112 118
p 112 119
p 112 120
p 113 114
p 113 115
p 113 116
p 113 117
p 113 118
p 113 119
p 113 120
p 114 115
p 114 116
p 114 117
p 114 118
p 114 119
p 114 120
p 115 116
p 115 117
p 115 118
p 115 119
p 115 120
p 116 117
p 116 118
p 116 119
p 116 120
p 117 118
p 117 119
p 117 120
p 118 119
p 118 120
p 119 120
